This is Ipopt version 3.14.16, running with linear solver MUMPS 5.7.3.

Number of nonzeros in equality constraint Jacobian...:        0
Number of nonzeros in inequality constraint Jacobian.:       25
Number of nonzeros in Lagrangian Hessian.............:        0

Total number of variables............................:       25
                     variables with only lower bounds:        0
                variables with lower and upper bounds:       25
                     variables with only upper bounds:        0
Total number of equality constraints.................:        0
Total number of inequality constraints...............:        1
        inequality constraints with only lower bounds:        0
   inequality constraints with lower and upper bounds:        0
        inequality constraints with only upper bounds:        1

iter    objective    inf_pr   inf_du lg(mu)  ||d||  lg(rg) alpha_du alpha_pr  ls
   0  1.8547144e-02 1.95e-01 1.02e+00   0.0 0.00e+00    -  0.00e+00 0.00e+00   0
   1  4.7143331e-02 1.08e+00 1.60e+00  -1.4 1.37e-01    -  8.74e-01 1.00e+00h  1
   2  1.2189604e-02 0.00e+00 2.01e-01  -1.0 9.82e-01    -  1.00e+00 1.00e+00f  1
   3  1.3188937e-02 0.00e+00 4.66e-02  -2.9 3.22e-01    -  9.98e-01 1.00e+00h  1
   4  9.2647306e-03 0.00e+00 2.35e-02  -4.2 3.35e-01    -  1.00e+00 1.00e+00h  1
   5  7.6964020e-03 0.00e+00 4.78e-02  -5.5 2.88e-01    -  1.00e+00 1.00e+00h  1
   6  5.8594588e-03 0.00e+00 8.45e-03  -3.9 8.86e-02    -  1.00e+00 9.98e-01h  1
   7  5.7829455e-03 0.00e+00 6.13e-03  -5.6 8.27e-03    -  1.00e+00 1.00e+00h  1
   8  5.7712913e-03 6.79e-05 5.30e-03  -7.2 2.24e-03    -  1.00e+00 1.00e+00h  1
   9  5.7559183e-03 0.00e+00 1.89e-03  -9.0 4.77e-03    -  1.00e+00 1.00e+00h  1
iter    objective    inf_pr   inf_du lg(mu)  ||d||  lg(rg) alpha_du alpha_pr  ls
  10  5.7425953e-03 2.27e-04 1.46e-03 -11.0 5.14e-03    -  1.00e+00 1.00e+00h  1
  11  5.7377637e-03 3.52e-04 9.32e-04 -11.0 6.49e-03    -  1.00e+00 1.00e+00h  1
  12  5.7378858e-03 5.96e-05 5.96e-04 -11.0 3.36e-03    -  1.00e+00 1.00e+00h  1
  13  5.7370708e-03 0.00e+00 1.89e-04 -11.0 7.49e-04    -  1.00e+00 1.00e+00h  1
  14  5.7367709e-03 6.20e-07 1.47e-04 -11.0 5.40e-04    -  1.00e+00 1.00e+00h  1
  15  5.7365321e-03 1.86e-06 6.31e-05 -11.0 1.31e-03    -  1.00e+00 1.00e+00h  1
  16  5.7380442e-03 0.00e+00 6.12e-04 -11.0 3.30e-03    -  1.00e+00 1.00e+00H  1
  17  5.7365547e-03 0.00e+00 2.01e-04 -11.0 1.23e-03    -  1.00e+00 1.00e+00h  1
  18  5.7364363e-03 4.74e-07 1.23e-04 -11.0 4.92e-04    -  1.00e+00 1.00e+00h  1
  19  5.7363791e-03 1.27e-07 2.92e-05 -11.0 2.58e-04    -  1.00e+00 1.00e+00h  1
iter    objective    inf_pr   inf_du lg(mu)  ||d||  lg(rg) alpha_du alpha_pr  ls
  20  5.7363738e-03 0.00e+00 1.78e-05 -11.0 9.65e-05    -  1.00e+00 1.00e+00h  1
  21  5.7365996e-03 0.00e+00 2.40e-04 -11.0 1.78e-03    -  1.00e+00 1.00e+00H  1
  22  5.7364678e-03 1.15e-07 1.34e-04 -11.0 5.15e-04    -  1.00e+00 1.00e+00h  1
  23  5.7363722e-03 0.00e+00 2.93e-05 -11.0 1.03e-03    -  1.00e+00 1.00e+00h  1
  24  5.7365783e-03 0.00e+00 2.07e-04 -11.0 7.83e-04    -  1.00e+00 1.00e+00h  1
  25  5.7363450e-03 0.00e+00 1.88e-05 -11.0 5.92e-04    -  1.00e+00 1.00e+00h  1
  26  5.7363409e-03 0.00e+00 2.97e-05 -11.0 1.11e-04    -  1.00e+00 1.00e+00h  1
  27  5.7363373e-03 0.00e+00 9.16e-06 -11.0 8.26e-05    -  1.00e+00 1.00e+00h  1
  28  5.7363366e-03 0.00e+00 1.36e-05 -11.0 7.50e-05    -  1.00e+00 1.00e+00h  1
  29  5.7363350e-03 0.00e+00 1.18e-05 -11.0 5.38e-05    -  1.00e+00 1.00e+00h  1
iter    objective    inf_pr   inf_du lg(mu)  ||d||  lg(rg) alpha_du alpha_pr  ls
  30  5.7363428e-03 0.00e+00 5.08e-05 -11.0 2.43e-04    -  1.00e+00 1.00e+00H  1
  31  5.7363340e-03 0.00e+00 1.54e-05 -11.0 7.98e-05    -  1.00e+00 1.00e+00h  1
  32  5.7363325e-03 0.00e+00 5.64e-06 -11.0 3.32e-05    -  1.00e+00 1.00e+00h  1
  33  5.7363322e-03 0.00e+00 3.32e-06 -11.0 2.53e-05    -  1.00e+00 1.00e+00h  1
  34  5.7363354e-03 0.00e+00 2.87e-05 -11.0 2.01e-04    -  1.00e+00 1.00e+00H  1
  35  5.7363351e-03 0.00e+00 2.49e-05 -11.0 2.10e-04    -  1.00e+00 1.00e+00H  1
  36  5.7363479e-03 0.00e+00 5.53e-05 -11.0 4.33e-04    -  1.00e+00 1.00e+00H  1
  37  5.7363593e-03 0.00e+00 6.11e-05 -11.0 3.74e-04    -  1.00e+00 1.00e+00H  1
  38  5.7363601e-03 0.00e+00 7.64e-05 -11.0 6.33e-04    -  1.00e+00 1.00e+00H  1
  39  5.7363455e-03 0.00e+00 5.08e-05 -11.0 8.84e-04    -  1.00e+00 2.50e-01f  3
iter    objective    inf_pr   inf_du lg(mu)  ||d||  lg(rg) alpha_du alpha_pr  ls
  40  5.7365009e-03 0.00e+00 1.43e-04 -11.0 8.06e-04    -  1.00e+00 1.00e+00H  1
  41  5.7363388e-03 0.00e+00 3.51e-05 -11.0 3.80e-04    -  1.00e+00 1.00e+00f  1
  42  5.7363323e-03 0.00e+00 1.22e-05 -11.0 1.71e-04    -  1.00e+00 1.00e+00h  1
  43  5.7363319e-03 0.00e+00 1.49e-05 -11.0 5.34e-05    -  1.00e+00 1.00e+00h  1
  44  5.7363309e-03 0.00e+00 1.93e-06 -11.0 4.71e-05    -  1.00e+00 1.00e+00h  1
  45  5.7363309e-03 0.00e+00 1.98e-06 -11.0 5.33e-06    -  1.00e+00 1.00e+00h  1
  46  5.7363309e-03 0.00e+00 1.12e-06 -11.0 3.78e-06    -  1.00e+00 1.00e+00h  1
  47  5.7363308e-03 0.00e+00 2.97e-06 -11.0 3.26e-05    -  1.00e+00 1.00e+00h  1
  48  5.7363310e-03 0.00e+00 9.39e-06 -11.0 7.74e-05    -  1.00e+00 1.00e+00H  1
  49  5.7363324e-03 0.00e+00 1.83e-05 -11.0 8.22e-05    -  1.00e+00 1.00e+00H  1
iter    objective    inf_pr   inf_du lg(mu)  ||d||  lg(rg) alpha_du alpha_pr  ls
  50  5.7363309e-03 0.00e+00 6.14e-06 -11.0 9.45e-05    -  1.00e+00 1.00e+00h  1
  51  5.7363308e-03 0.00e+00 4.45e-06 -11.0 7.04e-05    -  1.00e+00 2.50e-01h  3
  52  5.7363305e-03 0.00e+00 9.65e-07 -11.0 2.99e-05    -  1.00e+00 1.00e+00h  1

Number of Iterations....: 52

                                   (scaled)                 (unscaled)
Objective...............:   5.7363305218686078e-03    5.7363305218686078e-03
Dual infeasibility......:   9.6516093282820387e-07    9.6516093282820387e-07
Constraint violation....:   0.0000000000000000e+00    0.0000000000000000e+00
Variable bound violation:   0.0000000000000000e+00    0.0000000000000000e+00
Complementarity.........:   1.0000000001302476e-11    1.0000000001302476e-11
Overall NLP error.......:   9.6516093282820387e-07    9.6516093282820387e-07


Number of objective function evaluations             = 76
Number of objective gradient evaluations             = 53
Number of equality constraint evaluations            = 0
Number of inequality constraint evaluations          = 76
Number of equality constraint Jacobian evaluations   = 0
Number of inequality constraint Jacobian evaluations = 53
Number of Lagrangian Hessian evaluations             = 0
Total seconds in IPOPT                               = 102.901

EXIT: Optimal Solution Found.
